(set-logic BV)
( synth-fun inv ((dataa_copy (_ BitVec 8)) (datab_copy (_ BitVec 8)) (add_sub Bool) (result (_ BitVec 8)) ) Bool
(
(Start  Bool)
(MixBv8  (_ BitVec 8))
)
(
(Start Bool 
	(
	(not Start) 
	(and Start Start) 
	(or Start Start)
	; add_sub
	(not (= MixBv8 (_ bv0 8)))
	(= MixBv8 MixBv8 )
	)
)
(MixBv8 (_ BitVec 8) 
    ( 
	dataa_copy
	datab_copy
	result
	(bvneg MixBv8)
	(bvnot MixBv8)
	(bvand MixBv8 MixBv8)
	(bvor MixBv8 MixBv8)
	(bvadd MixBv8 MixBv8)
	(bvsub MixBv8 MixBv8)
	(bvmul MixBv8 MixBv8)
	)
)
)
)
(constraint (=(inv #b00000000 #b00000000 true #b00000000 ) true))
(constraint (=(inv #b00000000 #b00000000 true #b00000000 ) true))
(constraint (=(inv #b00111100 #b01001001 true #b10000101 ) true))
(constraint (=(inv #b00111100 #b01001001 true #b10000101 ) true))
(constraint (=(inv #b01010011 #b01100011 true #b10110110 ) true))
(constraint (=(inv #b01010011 #b01100011 true #b10110110 ) true))
(constraint (=(inv #b00100001 #b01010010 true #b01110011 ) true))
(constraint (=(inv #b00100001 #b01010010 true #b01110011 ) true))
(constraint (=(inv #b01010011 #b00011011 true #b01101110 ) true))
(constraint (=(inv #b01010011 #b00011011 true #b01101110 ) true))
(constraint (=(inv #b01001001 #b00011101 true #b01100110 ) true))
(constraint (=(inv #b01001001 #b00011101 true #b01100110 ) true))
(constraint (=(inv #b00100000 #b01000001 true #b01100001 ) true))
(constraint (=(inv #b00100000 #b01000001 true #b01100001 ) true))
(constraint (=(inv #b01100100 #b00000101 true #b01101001 ) true))
(constraint (=(inv #b01100100 #b00000101 true #b01101001 ) true))
(constraint (=(inv #b00011001 #b00111100 true #b01010101 ) true))
(constraint (=(inv #b00011001 #b00111100 true #b01010101 ) true))
(constraint (=(inv #b01001101 #b01010000 true #b10011101 ) true))
(constraint (=(inv #b01001101 #b01010000 true #b10011101 ) true))
(constraint (=(inv #b00000000 #b00000000 true #b00000000 ) true))
(constraint (=(inv #b00000000 #b00000000 true #b00000000 ) true))
(constraint (=(inv #b00010100 #b00100101 true #b00111001 ) true))
(constraint (=(inv #b00010100 #b00100101 true #b00111001 ) true))
(constraint (=(inv #b00110010 #b00111001 true #b01101011 ) true))
(constraint (=(inv #b00110010 #b00111001 true #b01101011 ) true))
(constraint (=(inv #b01100010 #b00111100 true #b10011110 ) true))
(constraint (=(inv #b01100010 #b00111100 true #b10011110 ) true))
(constraint (=(inv #b00111000 #b00011100 true #b01010100 ) true))
(constraint (=(inv #b00111000 #b00011100 true #b01010100 ) true))
(constraint (=(inv #b01000110 #b00101101 true #b01110011 ) true))
(constraint (=(inv #b01000110 #b00101101 true #b01110011 ) true))
(constraint (=(inv #b00010000 #b01010001 true #b01100001 ) true))
(constraint (=(inv #b00010000 #b01010001 true #b01100001 ) true))
(constraint (=(inv #b00010101 #b00010010 true #b00100111 ) true))
(constraint (=(inv #b00010101 #b00010010 true #b00100111 ) true))
(constraint (=(inv #b01011010 #b00010010 true #b01101100 ) true))
(constraint (=(inv #b01011010 #b00010010 true #b01101100 ) true))
(constraint (=(inv #b00111100 #b00000001 true #b00111101 ) true))
(constraint (=(inv #b00111100 #b00000001 true #b00111101 ) true))

(constraint (= (inv #b00000000 #b00000000 false #b00000001 ) false))
(constraint (= (inv #b00000000 #b00000000 true #b00000001 ) false))

(check-synth)
